\ LP format - for model browsing. Use MPS format to capture full model detail.
Minimize
  0 node_1_0 + 0 node_2_0 + 0 node_2_1 + 0 node_2_2 + 0 node_2_3
   + 0 node_2_4 + 0 node_2_5 + 0 node_2_6 + 0 node_2_7 + 0 node_2_8
   + 0 node_2_9 + 0 node_2_10 + 0 node_3_0 + 0 node_3_1 + 0 node_3_2
   + 0 node_3_3 + 0 node_3_4 + 0 node_3_5 + 0 node_3_6 + 0 node_3_7
   + 0 node_3_8 + 0 node_3_9 + 0 node_3_10 + 0 node_4_0 + 0 node_4_1
   + 0 node_4_2 + 0 node_4_3 + 0 node_4_4 + 0 node_4_5 + 0 node_4_6
   + 0 node_4_7 + 0 node_4_8 + 0 node_4_9 + 0 node_4_10 + 0 node_5_0
   + 0 node_5_1 + 0 node_5_2 + 0 node_5_3 + 0 node_5_4 + 0 node_5_5
   + 0 node_5_6 + 0 node_5_7 + 0 node_5_8 + 0 node_5_9 + 0 node_5_10
   + 0 node_6_0 + 0 node_6_1 + 0 node_6_2 + 0 node_6_3 + 0 node_6_4
   + 0 node_6_5 + 0 node_6_6 + 0 node_6_7 + 0 node_6_8 + 0 node_6_9
   + 0 node_6_10 + 0 node_7_0 + 0 node_8_0 + 0 node_8_1 + 0 node_8_2
   + 0 node_8_3 + 0 node_8_4 + 0 node_8_5 + 0 node_8_6 + 0 node_8_7
   + 0 node_8_8 + 0 node_8_9 + 0 node_8_10 + 0 node_9_0 + 0 node_9_1
   + 0 node_9_2 + 0 node_9_3 + 0 node_9_4 + 0 node_9_5 + 0 node_9_6
   + 0 node_9_7 + 0 node_9_8 + 0 node_9_9 + 0 node_9_10 + 0 node_10_0
   + 0 node_10_1 + 0 node_10_2 + 0 node_10_3 + 0 node_10_4 + 0 node_10_5
   + 0 node_10_6 + 0 node_10_7 + 0 node_10_8 + 0 node_10_9 + 0 node_10_10
   + 0 node_11_0 + 0 node_11_1 + 0 node_11_2 + 0 node_11_3 + 0 node_11_4
   + 0 node_11_5 + 0 node_11_6 + 0 node_11_7 + 0 node_11_8 + 0 node_11_9
   + 0 node_11_10 + 0 node_12_0 + 0 node_12_1 + 0 node_12_2 + 0 node_12_3
   + 0 node_12_4 + 0 node_12_5 + 0 node_12_6 + 0 node_12_7 + 0 node_12_8
   + 0 node_12_9 + 0 node_12_10 + 0 node_14_0 + 0 node_15_0 + 0 node_17_0
   + 0 node_18_0 + 0 node_20_0 + 0 node_21_0 + 0 node_23_0 + 0 node_24_0
   + 0 node_26_0 + 0 node_27_0 + 0 node_29_0 + 0 node_30_0 + 0 node_32_0
   + 0 node_33_0 + 0 node_35_0 + 0 node_36_0
Subject To
 R0: node_0_0 = 1
 R1: node_13_0 = 1
 R2: node_16_0 = 1
 R3: node_19_0 = 1
 R4: node_22_0 = 1
 R5: node_25_0 = 1
 R6: node_28_0 = 1
 R7: node_31_0 = 1
 R8: node_34_0 = 1
 R9: - contract_1_0 + contract_1_1 - contract_3_0 = 0
 R10: - contract_1_1 + contract_1_2 - contract_3_1 = 0
 R11: - contract_1_2 + contract_1_3 - contract_3_2 = 0
 R12: - contract_1_3 + contract_1_4 - contract_3_3 = 0
 R13: - contract_1_4 + contract_1_5 - contract_3_4 = 0
 R14: - contract_1_5 + contract_1_6 - contract_3_5 = 0
 R15: - contract_1_6 + contract_1_7 - contract_3_6 = 0
 R16: - contract_1_7 + contract_1_8 - contract_3_7 = 0
 R17: - contract_1_8 + contract_1_9 - contract_3_8 = 0
 R18: - contract_1_9 + contract_1_10 - contract_3_9 = 0
 R19: - contract_2_0 + contract_2_1 - contract_4_0 = 0
 R20: - contract_2_1 + contract_2_2 - contract_4_1 = 0
 R21: - contract_2_2 + contract_2_3 - contract_4_2 = 0
 R22: - contract_2_3 + contract_2_4 - contract_4_3 = 0
 R23: - contract_2_4 + contract_2_5 - contract_4_4 = 0
 R24: - contract_2_5 + contract_2_6 - contract_4_5 = 0
 R25: - contract_2_6 + contract_2_7 - contract_4_6 = 0
 R26: - contract_2_7 + contract_2_8 - contract_4_7 = 0
 R27: - contract_2_8 + contract_2_9 - contract_4_8 = 0
 R28: - contract_2_9 + contract_2_10 - contract_4_9 = 0
 R29: - contract_3_0 + contract_3_1 - contract_5_0 = 0
 R30: - contract_3_1 + contract_3_2 - contract_5_1 = 0
 R31: - contract_3_2 + contract_3_3 - contract_5_2 = 0
 R32: - contract_3_3 + contract_3_4 - contract_5_3 = 0
 R33: - contract_3_4 + contract_3_5 - contract_5_4 = 0
 R34: - contract_3_5 + contract_3_6 - contract_5_5 = 0
 R35: - contract_3_6 + contract_3_7 - contract_5_6 = 0
 R36: - contract_3_7 + contract_3_8 - contract_5_7 = 0
 R37: - contract_3_8 + contract_3_9 - contract_5_8 = 0
 R38: - contract_3_9 + contract_3_10 - contract_5_9 = 0
 R39: - contract_4_0 + contract_4_1 - contract_6_0 = 0
 R40: - contract_4_1 + contract_4_2 - contract_6_1 = 0
 R41: - contract_4_2 + contract_4_3 - contract_6_2 = 0
 R42: - contract_4_3 + contract_4_4 - contract_6_3 = 0
 R43: - contract_4_4 + contract_4_5 - contract_6_4 = 0
 R44: - contract_4_5 + contract_4_6 - contract_6_5 = 0
 R45: - contract_4_6 + contract_4_7 - contract_6_6 = 0
 R46: - contract_4_7 + contract_4_8 - contract_6_7 = 0
 R47: - contract_4_8 + contract_4_9 - contract_6_8 = 0
 R48: - contract_4_9 + contract_4_10 - contract_6_9 = 0
 R49: - contract_7_0 + contract_7_1 - contract_9_0 = 0
 R50: - contract_7_1 + contract_7_2 - contract_9_1 = 0
 R51: - contract_7_2 + contract_7_3 - contract_9_2 = 0
 R52: - contract_7_3 + contract_7_4 - contract_9_3 = 0
 R53: - contract_7_4 + contract_7_5 - contract_9_4 = 0
 R54: - contract_7_5 + contract_7_6 - contract_9_5 = 0
 R55: - contract_7_6 + contract_7_7 - contract_9_6 = 0
 R56: - contract_7_7 + contract_7_8 - contract_9_7 = 0
 R57: - contract_7_8 + contract_7_9 - contract_9_8 = 0
 R58: - contract_7_9 + contract_7_10 - contract_9_9 = 0
 R59: - contract_8_0 + contract_8_1 - contract_10_0 = 0
 R60: - contract_8_1 + contract_8_2 - contract_10_1 = 0
 R61: - contract_8_2 + contract_8_3 - contract_10_2 = 0
 R62: - contract_8_3 + contract_8_4 - contract_10_3 = 0
 R63: - contract_8_4 + contract_8_5 - contract_10_4 = 0
 R64: - contract_8_5 + contract_8_6 - contract_10_5 = 0
 R65: - contract_8_6 + contract_8_7 - contract_10_6 = 0
 R66: - contract_8_7 + contract_8_8 - contract_10_7 = 0
 R67: - contract_8_8 + contract_8_9 - contract_10_8 = 0
 R68: - contract_8_9 + contract_8_10 - contract_10_9 = 0
 R69: - contract_9_0 + contract_9_1 - contract_11_0 = 0
 R70: - contract_9_1 + contract_9_2 - contract_11_1 = 0
 R71: - contract_9_2 + contract_9_3 - contract_11_2 = 0
 R72: - contract_9_3 + contract_9_4 - contract_11_3 = 0
 R73: - contract_9_4 + contract_9_5 - contract_11_4 = 0
 R74: - contract_9_5 + contract_9_6 - contract_11_5 = 0
 R75: - contract_9_6 + contract_9_7 - contract_11_6 = 0
 R76: - contract_9_7 + contract_9_8 - contract_11_7 = 0
 R77: - contract_9_8 + contract_9_9 - contract_11_8 = 0
 R78: - contract_9_9 + contract_9_10 - contract_11_9 = 0
 R79: - contract_10_0 + contract_10_1 - contract_12_0 = 0
 R80: - contract_10_1 + contract_10_2 - contract_12_1 = 0
 R81: - contract_10_2 + contract_10_3 - contract_12_2 = 0
 R82: - contract_10_3 + contract_10_4 - contract_12_3 = 0
 R83: - contract_10_4 + contract_10_5 - contract_12_4 = 0
 R84: - contract_10_5 + contract_10_6 - contract_12_5 = 0
 R85: - contract_10_6 + contract_10_7 - contract_12_6 = 0
 R86: - contract_10_7 + contract_10_8 - contract_12_7 = 0
 R87: - contract_10_8 + contract_10_9 - contract_12_8 = 0
 R88: - contract_10_9 + contract_10_10 - contract_12_9 = 0
 GC0: node_3_0 = 1 -> contract_7_0 <= -2
 GC1: node_3_0 = 0 -> contract_7_0 >= -1.9999
 GC2: node_3_1 = 1 -> contract_7_1 <= -2
 GC3: node_3_1 = 0 -> contract_7_1 >= -1.9999
 GC4: node_3_2 = 1 -> contract_7_2 <= -2
 GC5: node_3_2 = 0 -> contract_7_2 >= -1.9999
 GC6: node_3_3 = 1 -> contract_7_3 <= -2
 GC7: node_3_3 = 0 -> contract_7_3 >= -1.9999
 GC8: node_3_4 = 1 -> contract_7_4 <= -2
 GC9: node_3_4 = 0 -> contract_7_4 >= -1.9999
 GC10: node_3_5 = 1 -> contract_7_5 <= -2
 GC11: node_3_5 = 0 -> contract_7_5 >= -1.9999
 GC12: node_3_6 = 1 -> contract_7_6 <= -2
 GC13: node_3_6 = 0 -> contract_7_6 >= -1.9999
 GC14: node_3_7 = 1 -> contract_7_7 <= -2
 GC15: node_3_7 = 0 -> contract_7_7 >= -1.9999
 GC16: node_3_8 = 1 -> contract_7_8 <= -2
 GC17: node_3_8 = 0 -> contract_7_8 >= -1.9999
 GC18: node_3_9 = 1 -> contract_7_9 <= -2
 GC19: node_3_9 = 0 -> contract_7_9 >= -1.9999
 GC20: node_3_10 = 1 -> contract_7_10 <= -2
 GC21: node_3_10 = 0 -> contract_7_10 >= -1.9999
 GC22: node_4_0 = 1 -> - contract_7_0 <= 2
 GC23: node_4_0 = 0 -> - contract_7_0 >= 2.0001
 GC24: node_4_1 = 1 -> - contract_7_1 <= 2
 GC25: node_4_1 = 0 -> - contract_7_1 >= 2.0001
 GC26: node_4_2 = 1 -> - contract_7_2 <= 2
 GC27: node_4_2 = 0 -> - contract_7_2 >= 2.0001
 GC28: node_4_3 = 1 -> - contract_7_3 <= 2
 GC29: node_4_3 = 0 -> - contract_7_3 >= 2.0001
 GC30: node_4_4 = 1 -> - contract_7_4 <= 2
 GC31: node_4_4 = 0 -> - contract_7_4 >= 2.0001
 GC32: node_4_5 = 1 -> - contract_7_5 <= 2
 GC33: node_4_5 = 0 -> - contract_7_5 >= 2.0001
 GC34: node_4_6 = 1 -> - contract_7_6 <= 2
 GC35: node_4_6 = 0 -> - contract_7_6 >= 2.0001
 GC36: node_4_7 = 1 -> - contract_7_7 <= 2
 GC37: node_4_7 = 0 -> - contract_7_7 >= 2.0001
 GC38: node_4_8 = 1 -> - contract_7_8 <= 2
 GC39: node_4_8 = 0 -> - contract_7_8 >= 2.0001
 GC40: node_4_9 = 1 -> - contract_7_9 <= 2
 GC41: node_4_9 = 0 -> - contract_7_9 >= 2.0001
 GC42: node_4_10 = 1 -> - contract_7_10 <= 2
 GC43: node_4_10 = 0 -> - contract_7_10 >= 2.0001
 GC44: node_5_0 = 1 -> contract_8_0 <= -114
 GC45: node_5_0 = 0 -> contract_8_0 >= -113.9999
 GC46: node_5_1 = 1 -> contract_8_1 <= -114
 GC47: node_5_1 = 0 -> contract_8_1 >= -113.9999
 GC48: node_5_2 = 1 -> contract_8_2 <= -114
 GC49: node_5_2 = 0 -> contract_8_2 >= -113.9999
 GC50: node_5_3 = 1 -> contract_8_3 <= -114
 GC51: node_5_3 = 0 -> contract_8_3 >= -113.9999
 GC52: node_5_4 = 1 -> contract_8_4 <= -114
 GC53: node_5_4 = 0 -> contract_8_4 >= -113.9999
 GC54: node_5_5 = 1 -> contract_8_5 <= -114
 GC55: node_5_5 = 0 -> contract_8_5 >= -113.9999
 GC56: node_5_6 = 1 -> contract_8_6 <= -114
 GC57: node_5_6 = 0 -> contract_8_6 >= -113.9999
 GC58: node_5_7 = 1 -> contract_8_7 <= -114
 GC59: node_5_7 = 0 -> contract_8_7 >= -113.9999
 GC60: node_5_8 = 1 -> contract_8_8 <= -114
 GC61: node_5_8 = 0 -> contract_8_8 >= -113.9999
 GC62: node_5_9 = 1 -> contract_8_9 <= -114
 GC63: node_5_9 = 0 -> contract_8_9 >= -113.9999
 GC64: node_5_10 = 1 -> contract_8_10 <= -114
 GC65: node_5_10 = 0 -> contract_8_10 >= -113.9999
 GC66: node_6_0 = 1 -> - contract_8_0 <= 114
 GC67: node_6_0 = 0 -> - contract_8_0 >= 114.0001
 GC68: node_6_1 = 1 -> - contract_8_1 <= 114
 GC69: node_6_1 = 0 -> - contract_8_1 >= 114.0001
 GC70: node_6_2 = 1 -> - contract_8_2 <= 114
 GC71: node_6_2 = 0 -> - contract_8_2 >= 114.0001
 GC72: node_6_3 = 1 -> - contract_8_3 <= 114
 GC73: node_6_3 = 0 -> - contract_8_3 >= 114.0001
 GC74: node_6_4 = 1 -> - contract_8_4 <= 114
 GC75: node_6_4 = 0 -> - contract_8_4 >= 114.0001
 GC76: node_6_5 = 1 -> - contract_8_5 <= 114
 GC77: node_6_5 = 0 -> - contract_8_5 >= 114.0001
 GC78: node_6_6 = 1 -> - contract_8_6 <= 114
 GC79: node_6_6 = 0 -> - contract_8_6 >= 114.0001
 GC80: node_6_7 = 1 -> - contract_8_7 <= 114
 GC81: node_6_7 = 0 -> - contract_8_7 >= 114.0001
 GC82: node_6_8 = 1 -> - contract_8_8 <= 114
 GC83: node_6_8 = 0 -> - contract_8_8 >= 114.0001
 GC84: node_6_9 = 1 -> - contract_8_9 <= 114
 GC85: node_6_9 = 0 -> - contract_8_9 >= 114.0001
 GC86: node_6_10 = 1 -> - contract_8_10 <= 114
 GC87: node_6_10 = 0 -> - contract_8_10 >= 114.0001
 GC100: node_9_0 = 1 -> - contract_7_0 + contract_1_0 <= -2
 GC101: node_9_0 = 0 -> - contract_7_0 + contract_1_0 >= -1.9999
 GC102: node_9_1 = 1 -> - contract_7_1 + contract_1_1 <= -2
 GC103: node_9_1 = 0 -> - contract_7_1 + contract_1_1 >= -1.9999
 GC104: node_9_2 = 1 -> - contract_7_2 + contract_1_2 <= -2
 GC105: node_9_2 = 0 -> - contract_7_2 + contract_1_2 >= -1.9999
 GC106: node_9_3 = 1 -> - contract_7_3 + contract_1_3 <= -2
 GC107: node_9_3 = 0 -> - contract_7_3 + contract_1_3 >= -1.9999
 GC108: node_9_4 = 1 -> - contract_7_4 + contract_1_4 <= -2
 GC109: node_9_4 = 0 -> - contract_7_4 + contract_1_4 >= -1.9999
 GC110: node_9_5 = 1 -> - contract_7_5 + contract_1_5 <= -2
 GC111: node_9_5 = 0 -> - contract_7_5 + contract_1_5 >= -1.9999
 GC112: node_9_6 = 1 -> - contract_7_6 + contract_1_6 <= -2
 GC113: node_9_6 = 0 -> - contract_7_6 + contract_1_6 >= -1.9999
 GC114: node_9_7 = 1 -> - contract_7_7 + contract_1_7 <= -2
 GC115: node_9_7 = 0 -> - contract_7_7 + contract_1_7 >= -1.9999
 GC116: node_9_8 = 1 -> - contract_7_8 + contract_1_8 <= -2
 GC117: node_9_8 = 0 -> - contract_7_8 + contract_1_8 >= -1.9999
 GC118: node_9_9 = 1 -> - contract_7_9 + contract_1_9 <= -2
 GC119: node_9_9 = 0 -> - contract_7_9 + contract_1_9 >= -1.9999
 GC120: node_9_10 = 1 -> - contract_7_10 + contract_1_10 <= -2
 GC121: node_9_10 = 0 -> - contract_7_10 + contract_1_10 >= -1.9999
 GC122: node_10_0 = 1 -> contract_7_0 - contract_1_0 <= -2
 GC123: node_10_0 = 0 -> contract_7_0 - contract_1_0 >= -1.9999
 GC124: node_10_1 = 1 -> contract_7_1 - contract_1_1 <= -2
 GC125: node_10_1 = 0 -> contract_7_1 - contract_1_1 >= -1.9999
 GC126: node_10_2 = 1 -> contract_7_2 - contract_1_2 <= -2
 GC127: node_10_2 = 0 -> contract_7_2 - contract_1_2 >= -1.9999
 GC128: node_10_3 = 1 -> contract_7_3 - contract_1_3 <= -2
 GC129: node_10_3 = 0 -> contract_7_3 - contract_1_3 >= -1.9999
 GC130: node_10_4 = 1 -> contract_7_4 - contract_1_4 <= -2
 GC131: node_10_4 = 0 -> contract_7_4 - contract_1_4 >= -1.9999
 GC132: node_10_5 = 1 -> contract_7_5 - contract_1_5 <= -2
 GC133: node_10_5 = 0 -> contract_7_5 - contract_1_5 >= -1.9999
 GC134: node_10_6 = 1 -> contract_7_6 - contract_1_6 <= -2
 GC135: node_10_6 = 0 -> contract_7_6 - contract_1_6 >= -1.9999
 GC136: node_10_7 = 1 -> contract_7_7 - contract_1_7 <= -2
 GC137: node_10_7 = 0 -> contract_7_7 - contract_1_7 >= -1.9999
 GC138: node_10_8 = 1 -> contract_7_8 - contract_1_8 <= -2
 GC139: node_10_8 = 0 -> contract_7_8 - contract_1_8 >= -1.9999
 GC140: node_10_9 = 1 -> contract_7_9 - contract_1_9 <= -2
 GC141: node_10_9 = 0 -> contract_7_9 - contract_1_9 >= -1.9999
 GC142: node_10_10 = 1 -> contract_7_10 - contract_1_10 <= -2
 GC143: node_10_10 = 0 -> contract_7_10 - contract_1_10 >= -1.9999
 GC144: node_11_0 = 1 -> - contract_8_0 + contract_2_0 <= -2
 GC145: node_11_0 = 0 -> - contract_8_0 + contract_2_0 >= -1.9999
 GC146: node_11_1 = 1 -> - contract_8_1 + contract_2_1 <= -2
 GC147: node_11_1 = 0 -> - contract_8_1 + contract_2_1 >= -1.9999
 GC148: node_11_2 = 1 -> - contract_8_2 + contract_2_2 <= -2
 GC149: node_11_2 = 0 -> - contract_8_2 + contract_2_2 >= -1.9999
 GC150: node_11_3 = 1 -> - contract_8_3 + contract_2_3 <= -2
 GC151: node_11_3 = 0 -> - contract_8_3 + contract_2_3 >= -1.9999
 GC152: node_11_4 = 1 -> - contract_8_4 + contract_2_4 <= -2
 GC153: node_11_4 = 0 -> - contract_8_4 + contract_2_4 >= -1.9999
 GC154: node_11_5 = 1 -> - contract_8_5 + contract_2_5 <= -2
 GC155: node_11_5 = 0 -> - contract_8_5 + contract_2_5 >= -1.9999
 GC156: node_11_6 = 1 -> - contract_8_6 + contract_2_6 <= -2
 GC157: node_11_6 = 0 -> - contract_8_6 + contract_2_6 >= -1.9999
 GC158: node_11_7 = 1 -> - contract_8_7 + contract_2_7 <= -2
 GC159: node_11_7 = 0 -> - contract_8_7 + contract_2_7 >= -1.9999
 GC160: node_11_8 = 1 -> - contract_8_8 + contract_2_8 <= -2
 GC161: node_11_8 = 0 -> - contract_8_8 + contract_2_8 >= -1.9999
 GC162: node_11_9 = 1 -> - contract_8_9 + contract_2_9 <= -2
 GC163: node_11_9 = 0 -> - contract_8_9 + contract_2_9 >= -1.9999
 GC164: node_11_10 = 1 -> - contract_8_10 + contract_2_10 <= -2
 GC165: node_11_10 = 0 -> - contract_8_10 + contract_2_10 >= -1.9999
 GC166: node_12_0 = 1 -> contract_8_0 - contract_2_0 <= -2
 GC167: node_12_0 = 0 -> contract_8_0 - contract_2_0 >= -1.9999
 GC168: node_12_1 = 1 -> contract_8_1 - contract_2_1 <= -2
 GC169: node_12_1 = 0 -> contract_8_1 - contract_2_1 >= -1.9999
 GC170: node_12_2 = 1 -> contract_8_2 - contract_2_2 <= -2
 GC171: node_12_2 = 0 -> contract_8_2 - contract_2_2 >= -1.9999
 GC172: node_12_3 = 1 -> contract_8_3 - contract_2_3 <= -2
 GC173: node_12_3 = 0 -> contract_8_3 - contract_2_3 >= -1.9999
 GC174: node_12_4 = 1 -> contract_8_4 - contract_2_4 <= -2
 GC175: node_12_4 = 0 -> contract_8_4 - contract_2_4 >= -1.9999
 GC176: node_12_5 = 1 -> contract_8_5 - contract_2_5 <= -2
 GC177: node_12_5 = 0 -> contract_8_5 - contract_2_5 >= -1.9999
 GC178: node_12_6 = 1 -> contract_8_6 - contract_2_6 <= -2
 GC179: node_12_6 = 0 -> contract_8_6 - contract_2_6 >= -1.9999
 GC180: node_12_7 = 1 -> contract_8_7 - contract_2_7 <= -2
 GC181: node_12_7 = 0 -> contract_8_7 - contract_2_7 >= -1.9999
 GC182: node_12_8 = 1 -> contract_8_8 - contract_2_8 <= -2
 GC183: node_12_8 = 0 -> contract_8_8 - contract_2_8 >= -1.9999
 GC184: node_12_9 = 1 -> contract_8_9 - contract_2_9 <= -2
 GC185: node_12_9 = 0 -> contract_8_9 - contract_2_9 >= -1.9999
 GC186: node_12_10 = 1 -> contract_8_10 - contract_2_10 <= -2
 GC187: node_12_10 = 0 -> contract_8_10 - contract_2_10 >= -1.9999
 GC201: node_14_0 = 1 -> contract_1_0 <= -0
 GC202: node_14_0 = 0 -> contract_1_0 >= 0.0001
 GC203: node_15_0 = 1 -> - contract_1_0 <= -0
 GC204: node_15_0 = 0 -> - contract_1_0 >= 0.0001
 GC206: node_17_0 = 1 -> contract_2_0 <= 8
 GC207: node_17_0 = 0 -> contract_2_0 >= 8.0001
 GC208: node_18_0 = 1 -> - contract_2_0 <= -8
 GC209: node_18_0 = 0 -> - contract_2_0 >= -7.9999
 GC211: node_20_0 = 1 -> contract_3_0 <= 10
 GC212: node_20_0 = 0 -> contract_3_0 >= 10.0001
 GC213: node_21_0 = 1 -> - contract_3_0 <= -10
 GC214: node_21_0 = 0 -> - contract_3_0 >= -9.9999
 GC216: node_23_0 = 1 -> contract_4_0 <= -0
 GC217: node_23_0 = 0 -> contract_4_0 >= 0.0001
 GC218: node_24_0 = 1 -> - contract_4_0 <= -0
 GC219: node_24_0 = 0 -> - contract_4_0 >= 0.0001
 GC221: node_26_0 = 1 -> contract_7_0 <= 50
 GC222: node_26_0 = 0 -> contract_7_0 >= 50.0001
 GC223: node_27_0 = 1 -> - contract_7_0 <= -50
 GC224: node_27_0 = 0 -> - contract_7_0 >= -49.9999
 GC226: node_29_0 = 1 -> contract_8_0 <= 8
 GC227: node_29_0 = 0 -> contract_8_0 >= 8.0001
 GC228: node_30_0 = 1 -> - contract_8_0 <= -8
 GC229: node_30_0 = 0 -> - contract_8_0 >= -7.9999
 GC231: node_32_0 = 1 -> contract_9_0 <= 10
 GC232: node_32_0 = 0 -> contract_9_0 >= 10.0001
 GC233: node_33_0 = 1 -> - contract_9_0 <= -10
 GC234: node_33_0 = 0 -> - contract_9_0 >= -9.9999
 GC236: node_35_0 = 1 -> contract_10_0 <= -0
 GC237: node_35_0 = 0 -> contract_10_0 >= 0.0001
 GC238: node_36_0 = 1 -> - contract_10_0 <= -0
 GC239: node_36_0 = 0 -> - contract_10_0 >= 0.0001
Bounds
 -10000 <= contract_7_0 <= 10000
 -10000 <= contract_7_1 <= 10000
 -10000 <= contract_7_2 <= 10000
 -10000 <= contract_7_3 <= 10000
 -10000 <= contract_7_4 <= 10000
 -10000 <= contract_7_5 <= 10000
 -10000 <= contract_7_6 <= 10000
 -10000 <= contract_7_7 <= 10000
 -10000 <= contract_7_8 <= 10000
 -10000 <= contract_7_9 <= 10000
 -10000 <= contract_7_10 <= 10000
 -10000 <= contract_8_0 <= 10000
 -10000 <= contract_8_1 <= 10000
 -10000 <= contract_8_2 <= 10000
 -10000 <= contract_8_3 <= 10000
 -10000 <= contract_8_4 <= 10000
 -10000 <= contract_8_5 <= 10000
 -10000 <= contract_8_6 <= 10000
 -10000 <= contract_8_7 <= 10000
 -10000 <= contract_8_8 <= 10000
 -10000 <= contract_8_9 <= 10000
 -10000 <= contract_8_10 <= 10000
 -10000 <= contract_1_0 <= 10000
 -10000 <= contract_1_1 <= 10000
 -10000 <= contract_1_2 <= 10000
 -10000 <= contract_1_3 <= 10000
 -10000 <= contract_1_4 <= 10000
 -10000 <= contract_1_5 <= 10000
 -10000 <= contract_1_6 <= 10000
 -10000 <= contract_1_7 <= 10000
 -10000 <= contract_1_8 <= 10000
 -10000 <= contract_1_9 <= 10000
 -10000 <= contract_1_10 <= 10000
 -10000 <= contract_2_0 <= 10000
 -10000 <= contract_2_1 <= 10000
 -10000 <= contract_2_2 <= 10000
 -10000 <= contract_2_3 <= 10000
 -10000 <= contract_2_4 <= 10000
 -10000 <= contract_2_5 <= 10000
 -10000 <= contract_2_6 <= 10000
 -10000 <= contract_2_7 <= 10000
 -10000 <= contract_2_8 <= 10000
 -10000 <= contract_2_9 <= 10000
 -10000 <= contract_2_10 <= 10000
 -30 <= contract_3_0 <= 30
 -30 <= contract_4_0 <= 30
 -30 <= contract_9_0 <= 30
 -30 <= contract_10_0 <= 30
 -30 <= contract_3_1 <= 30
 -30 <= contract_3_2 <= 30
 -30 <= contract_3_3 <= 30
 -30 <= contract_3_4 <= 30
 -30 <= contract_3_5 <= 30
 -30 <= contract_3_6 <= 30
 -30 <= contract_3_7 <= 30
 -30 <= contract_3_8 <= 30
 -30 <= contract_3_9 <= 30
 -30 <= contract_4_1 <= 30
 -30 <= contract_4_2 <= 30
 -30 <= contract_4_3 <= 30
 -30 <= contract_4_4 <= 30
 -30 <= contract_4_5 <= 30
 -30 <= contract_4_6 <= 30
 -30 <= contract_4_7 <= 30
 -30 <= contract_4_8 <= 30
 -30 <= contract_4_9 <= 30
 -10 <= contract_5_0 <= 10
 -10 <= contract_5_1 <= 10
 -10 <= contract_5_2 <= 10
 -10 <= contract_5_3 <= 10
 -10 <= contract_5_4 <= 10
 -10 <= contract_5_5 <= 10
 -10 <= contract_5_6 <= 10
 -10 <= contract_5_7 <= 10
 -10 <= contract_5_8 <= 10
 -30 <= contract_3_10 <= 30
 -10 <= contract_5_9 <= 10
 -10 <= contract_6_0 <= 10
 -10 <= contract_6_1 <= 10
 -10 <= contract_6_2 <= 10
 -10 <= contract_6_3 <= 10
 -10 <= contract_6_4 <= 10
 -10 <= contract_6_5 <= 10
 -10 <= contract_6_6 <= 10
 -10 <= contract_6_7 <= 10
 -10 <= contract_6_8 <= 10
 -30 <= contract_4_10 <= 30
 -10 <= contract_6_9 <= 10
 -30 <= contract_9_1 <= 30
 -30 <= contract_9_2 <= 30
 -30 <= contract_9_3 <= 30
 -30 <= contract_9_4 <= 30
 -30 <= contract_9_5 <= 30
 -30 <= contract_9_6 <= 30
 -30 <= contract_9_7 <= 30
 -30 <= contract_9_8 <= 30
 -30 <= contract_9_9 <= 30
 -30 <= contract_10_1 <= 30
 -30 <= contract_10_2 <= 30
 -30 <= contract_10_3 <= 30
 -30 <= contract_10_4 <= 30
 -30 <= contract_10_5 <= 30
 -30 <= contract_10_6 <= 30
 -30 <= contract_10_7 <= 30
 -30 <= contract_10_8 <= 30
 -30 <= contract_10_9 <= 30
 -10 <= contract_11_0 <= 10
 -10 <= contract_11_1 <= 10
 -10 <= contract_11_2 <= 10
 -10 <= contract_11_3 <= 10
 -10 <= contract_11_4 <= 10
 -10 <= contract_11_5 <= 10
 -10 <= contract_11_6 <= 10
 -10 <= contract_11_7 <= 10
 -10 <= contract_11_8 <= 10
 -30 <= contract_9_10 <= 30
 -10 <= contract_11_9 <= 10
 -10 <= contract_12_0 <= 10
 -10 <= contract_12_1 <= 10
 -10 <= contract_12_2 <= 10
 -10 <= contract_12_3 <= 10
 -10 <= contract_12_4 <= 10
 -10 <= contract_12_5 <= 10
 -10 <= contract_12_6 <= 10
 -10 <= contract_12_7 <= 10
 -10 <= contract_12_8 <= 10
 -30 <= contract_10_10 <= 30
 -10 <= contract_12_9 <= 10
Binaries
 node_0_0 node_1_0 node_2_0 node_2_1 node_2_2 node_2_3 node_2_4 node_2_5
 node_2_6 node_2_7 node_2_8 node_2_9 node_2_10 node_3_0 node_3_1 node_3_2
 node_3_3 node_3_4 node_3_5 node_3_6 node_3_7 node_3_8 node_3_9 node_3_10
 node_4_0 node_4_1 node_4_2 node_4_3 node_4_4 node_4_5 node_4_6 node_4_7
 node_4_8 node_4_9 node_4_10 node_5_0 node_5_1 node_5_2 node_5_3 node_5_4
 node_5_5 node_5_6 node_5_7 node_5_8 node_5_9 node_5_10 node_6_0 node_6_1
 node_6_2 node_6_3 node_6_4 node_6_5 node_6_6 node_6_7 node_6_8 node_6_9
 node_6_10 node_7_0 node_8_0 node_8_1 node_8_2 node_8_3 node_8_4 node_8_5
 node_8_6 node_8_7 node_8_8 node_8_9 node_8_10 node_9_0 node_9_1 node_9_2
 node_9_3 node_9_4 node_9_5 node_9_6 node_9_7 node_9_8 node_9_9 node_9_10
 node_10_0 node_10_1 node_10_2 node_10_3 node_10_4 node_10_5 node_10_6
 node_10_7 node_10_8 node_10_9 node_10_10 node_11_0 node_11_1 node_11_2
 node_11_3 node_11_4 node_11_5 node_11_6 node_11_7 node_11_8 node_11_9
 node_11_10 node_12_0 node_12_1 node_12_2 node_12_3 node_12_4 node_12_5
 node_12_6 node_12_7 node_12_8 node_12_9 node_12_10 node_13_0 node_14_0
 node_15_0 node_16_0 node_17_0 node_18_0 node_19_0 node_20_0 node_21_0
 node_22_0 node_23_0 node_24_0 node_25_0 node_26_0 node_27_0 node_28_0
 node_29_0 node_30_0 node_31_0 node_32_0 node_33_0 node_34_0 node_35_0
 node_36_0
General Constraints
 GC88: node_2_0 = AND ( node_3_0 , node_4_0 , node_5_0 , node_6_0 )
 GC89: node_2_1 = AND ( node_3_1 , node_4_1 , node_5_1 , node_6_1 )
 GC90: node_2_2 = AND ( node_3_2 , node_4_2 , node_5_2 , node_6_2 )
 GC91: node_2_3 = AND ( node_3_3 , node_4_3 , node_5_3 , node_6_3 )
 GC92: node_2_4 = AND ( node_3_4 , node_4_4 , node_5_4 , node_6_4 )
 GC93: node_2_5 = AND ( node_3_5 , node_4_5 , node_5_5 , node_6_5 )
 GC94: node_2_6 = AND ( node_3_6 , node_4_6 , node_5_6 , node_6_6 )
 GC95: node_2_7 = AND ( node_3_7 , node_4_7 , node_5_7 , node_6_7 )
 GC96: node_2_8 = AND ( node_3_8 , node_4_8 , node_5_8 , node_6_8 )
 GC97: node_2_9 = AND ( node_3_9 , node_4_9 , node_5_9 , node_6_9 )
 GC98: node_2_10 = AND ( node_3_10 , node_4_10 , node_5_10 , node_6_10 )
 GC99: node_1_0 = OR ( node_2_0 , node_2_1 , node_2_2 , node_2_3 ,
   node_2_4 , node_2_5 , node_2_6 , node_2_7 , node_2_8 , node_2_9 ,
   node_2_10 )
 GC188: node_8_0 = OR ( node_9_0 , node_10_0 , node_11_0 , node_12_0 )
 GC189: node_8_1 = OR ( node_9_1 , node_10_1 , node_11_1 , node_12_1 )
 GC190: node_8_2 = OR ( node_9_2 , node_10_2 , node_11_2 , node_12_2 )
 GC191: node_8_3 = OR ( node_9_3 , node_10_3 , node_11_3 , node_12_3 )
 GC192: node_8_4 = OR ( node_9_4 , node_10_4 , node_11_4 , node_12_4 )
 GC193: node_8_5 = OR ( node_9_5 , node_10_5 , node_11_5 , node_12_5 )
 GC194: node_8_6 = OR ( node_9_6 , node_10_6 , node_11_6 , node_12_6 )
 GC195: node_8_7 = OR ( node_9_7 , node_10_7 , node_11_7 , node_12_7 )
 GC196: node_8_8 = OR ( node_9_8 , node_10_8 , node_11_8 , node_12_8 )
 GC197: node_8_9 = OR ( node_9_9 , node_10_9 , node_11_9 , node_12_9 )
 GC198: node_8_10 = OR ( node_9_10 , node_10_10 , node_11_10 , node_12_10 )
 GC199: node_7_0 = AND ( node_8_0 , node_8_1 , node_8_2 , node_8_3 ,
   node_8_4 , node_8_5 , node_8_6 , node_8_7 , node_8_8 , node_8_9 ,
   node_8_10 )
 GC200: node_0_0 = AND ( node_1_0 , node_7_0 )
 GC205: node_13_0 = AND ( node_14_0 , node_15_0 )
 GC210: node_16_0 = AND ( node_17_0 , node_18_0 )
 GC215: node_19_0 = AND ( node_20_0 , node_21_0 )
 GC220: node_22_0 = AND ( node_23_0 , node_24_0 )
 GC225: node_25_0 = AND ( node_26_0 , node_27_0 )
 GC230: node_28_0 = AND ( node_29_0 , node_30_0 )
 GC235: node_31_0 = AND ( node_32_0 , node_33_0 )
 GC240: node_34_0 = AND ( node_35_0 , node_36_0 )
End
